p cnf 986 2901
c inputs: 1 2 3 4 5 6 7 8 9 10 11 12 13 14 15 16 17 18 19
c variables for gates: 20 ... 967
c outputs: 968 969 970 971 972 973 974 975 976 977 978 979 980 981 982 983 984 985 986
c random input: -1 -2 -3 -4 -5 -6 -7 -8 -9 -10 11 -12 13 -14 15 16 17 -18 -19
20 -1 -10 0
-20 1 0
-20 10 0
21 -1 -11 0
-21 1 0
-21 11 0
22 -1 -12 0
-22 1 0
-22 12 0
23 -1 -13 0
-23 1 0
-23 13 0
24 -1 -14 0
-24 1 0
-24 14 0
25 -1 -15 0
-25 1 0
-25 15 0
26 -1 -16 0
-26 1 0
-26 16 0
27 -1 -17 0
-27 1 0
-27 17 0
28 -1 -18 0
-28 1 0
-28 18 0
29 -1 -19 0
-29 1 0
-29 19 0
30 -2 -10 0
-30 2 0
-30 10 0
31 -2 -11 0
-31 2 0
-31 11 0
32 -2 -12 0
-32 2 0
-32 12 0
33 -2 -13 0
-33 2 0
-33 13 0
34 -2 -14 0
-34 2 0
-34 14 0
35 -2 -15 0
-35 2 0
-35 15 0
36 -2 -16 0
-36 2 0
-36 16 0
37 -2 -17 0
-37 2 0
-37 17 0
38 -2 -18 0
-38 2 0
-38 18 0
39 -2 -19 0
-39 2 0
-39 19 0
40 -3 -10 0
-40 3 0
-40 10 0
41 -3 -11 0
-41 3 0
-41 11 0
42 -3 -12 0
-42 3 0
-42 12 0
43 -3 -13 0
-43 3 0
-43 13 0
44 -3 -14 0
-44 3 0
-44 14 0
45 -3 -15 0
-45 3 0
-45 15 0
46 -3 -16 0
-46 3 0
-46 16 0
47 -3 -17 0
-47 3 0
-47 17 0
48 -3 -18 0
-48 3 0
-48 18 0
49 -3 -19 0
-49 3 0
-49 19 0
50 -4 -10 0
-50 4 0
-50 10 0
51 -4 -11 0
-51 4 0
-51 11 0
52 -4 -12 0
-52 4 0
-52 12 0
53 -4 -13 0
-53 4 0
-53 13 0
54 -4 -14 0
-54 4 0
-54 14 0
55 -4 -15 0
-55 4 0
-55 15 0
56 -4 -16 0
-56 4 0
-56 16 0
57 -4 -17 0
-57 4 0
-57 17 0
58 -4 -18 0
-58 4 0
-58 18 0
59 -4 -19 0
-59 4 0
-59 19 0
60 -5 -10 0
-60 5 0
-60 10 0
61 -5 -11 0
-61 5 0
-61 11 0
62 -5 -12 0
-62 5 0
-62 12 0
63 -5 -13 0
-63 5 0
-63 13 0
64 -5 -14 0
-64 5 0
-64 14 0
65 -5 -15 0
-65 5 0
-65 15 0
66 -5 -16 0
-66 5 0
-66 16 0
67 -5 -17 0
-67 5 0
-67 17 0
68 -5 -18 0
-68 5 0
-68 18 0
69 -5 -19 0
-69 5 0
-69 19 0
70 -6 -10 0
-70 6 0
-70 10 0
71 -6 -11 0
-71 6 0
-71 11 0
72 -6 -12 0
-72 6 0
-72 12 0
73 -6 -13 0
-73 6 0
-73 13 0
74 -6 -14 0
-74 6 0
-74 14 0
75 -6 -15 0
-75 6 0
-75 15 0
76 -6 -16 0
-76 6 0
-76 16 0
77 -6 -17 0
-77 6 0
-77 17 0
78 -6 -18 0
-78 6 0
-78 18 0
79 -6 -19 0
-79 6 0
-79 19 0
80 -7 -10 0
-80 7 0
-80 10 0
81 -7 -11 0
-81 7 0
-81 11 0
82 -7 -12 0
-82 7 0
-82 12 0
83 -7 -13 0
-83 7 0
-83 13 0
84 -7 -14 0
-84 7 0
-84 14 0
85 -7 -15 0
-85 7 0
-85 15 0
86 -7 -16 0
-86 7 0
-86 16 0
87 -7 -17 0
-87 7 0
-87 17 0
88 -7 -18 0
-88 7 0
-88 18 0
89 -7 -19 0
-89 7 0
-89 19 0
90 -8 -10 0
-90 8 0
-90 10 0
91 -8 -11 0
-91 8 0
-91 11 0
92 -8 -12 0
-92 8 0
-92 12 0
93 -8 -13 0
-93 8 0
-93 13 0
94 -8 -14 0
-94 8 0
-94 14 0
95 -8 -15 0
-95 8 0
-95 15 0
96 -8 -16 0
-96 8 0
-96 16 0
97 -8 -17 0
-97 8 0
-97 17 0
98 -8 -18 0
-98 8 0
-98 18 0
99 -8 -19 0
-99 8 0
-99 19 0
100 -9 -10 0
-100 9 0
-100 10 0
101 -9 -11 0
-101 9 0
-101 11 0
102 -9 -12 0
-102 9 0
-102 12 0
103 -9 -13 0
-103 9 0
-103 13 0
104 -9 -14 0
-104 9 0
-104 14 0
105 -9 -15 0
-105 9 0
-105 15 0
106 -9 -16 0
-106 9 0
-106 16 0
107 -9 -17 0
-107 9 0
-107 17 0
108 -9 -18 0
-108 9 0
-108 18 0
109 -9 -19 0
-109 9 0
-109 19 0
110 -30 -21 0
-110 30 0
-110 21 0
111 -21 30 0
-111 21 0
-111 -30 0
112 -30 21 0
-112 30 0
-112 -21 0
113 111 112 0
-113 -111 0
-113 -112 0
114 -31 -22 0
-114 31 0
-114 22 0
115 -40 -22 0
-115 40 0
-115 22 0
116 -31 -40 0
-116 31 0
-116 40 0
117 115 116 0
-117 -115 0
-117 -116 0
118 114 -117 0
-118 -114 0
-118 117 0
119 -31 40 0
-119 31 0
-119 -40 0
120 -40 31 0
-120 40 0
-120 -31 0
121 120 119 0
-121 -120 0
-121 -119 0
122 -22 -121 0
-122 22 0
-122 121 0
123 22 121 0
-123 -22 0
-123 -121 0
124 122 123 0
-124 -122 0
-124 -123 0
125 -32 -23 0
-125 32 0
-125 23 0
126 -41 -23 0
-126 41 0
-126 23 0
127 -32 -41 0
-127 32 0
-127 41 0
128 126 127 0
-128 -126 0
-128 -127 0
129 125 -128 0
-129 -125 0
-129 128 0
130 -32 41 0
-130 32 0
-130 -41 0
131 -41 32 0
-131 41 0
-131 -32 0
132 131 130 0
-132 -131 0
-132 -130 0
133 -23 -132 0
-133 23 0
-133 132 0
134 23 132 0
-134 -23 0
-134 -132 0
135 133 134 0
-135 -133 0
-135 -134 0
136 -33 -24 0
-136 33 0
-136 24 0
137 -42 -24 0
-137 42 0
-137 24 0
138 -33 -42 0
-138 33 0
-138 42 0
139 137 138 0
-139 -137 0
-139 -138 0
140 136 -139 0
-140 -136 0
-140 139 0
141 -33 42 0
-141 33 0
-141 -42 0
142 -42 33 0
-142 42 0
-142 -33 0
143 142 141 0
-143 -142 0
-143 -141 0
144 -24 -143 0
-144 24 0
-144 143 0
145 24 143 0
-145 -24 0
-145 -143 0
146 144 145 0
-146 -144 0
-146 -145 0
147 -34 -25 0
-147 34 0
-147 25 0
148 -43 -25 0
-148 43 0
-148 25 0
149 -34 -43 0
-149 34 0
-149 43 0
150 148 149 0
-150 -148 0
-150 -149 0
151 147 -150 0
-151 -147 0
-151 150 0
152 -34 43 0
-152 34 0
-152 -43 0
153 -43 34 0
-153 43 0
-153 -34 0
154 153 152 0
-154 -153 0
-154 -152 0
155 -25 -154 0
-155 25 0
-155 154 0
156 25 154 0
-156 -25 0
-156 -154 0
157 155 156 0
-157 -155 0
-157 -156 0
158 -35 -26 0
-158 35 0
-158 26 0
159 -44 -26 0
-159 44 0
-159 26 0
160 -35 -44 0
-160 35 0
-160 44 0
161 159 160 0
-161 -159 0
-161 -160 0
162 158 -161 0
-162 -158 0
-162 161 0
163 -35 44 0
-163 35 0
-163 -44 0
164 -44 35 0
-164 44 0
-164 -35 0
165 164 163 0
-165 -164 0
-165 -163 0
166 -26 -165 0
-166 26 0
-166 165 0
167 26 165 0
-167 -26 0
-167 -165 0
168 166 167 0
-168 -166 0
-168 -167 0
169 -36 -27 0
-169 36 0
-169 27 0
170 -45 -27 0
-170 45 0
-170 27 0
171 -36 -45 0
-171 36 0
-171 45 0
172 170 171 0
-172 -170 0
-172 -171 0
173 169 -172 0
-173 -169 0
-173 172 0
174 -36 45 0
-174 36 0
-174 -45 0
175 -45 36 0
-175 45 0
-175 -36 0
176 175 174 0
-176 -175 0
-176 -174 0
177 -27 -176 0
-177 27 0
-177 176 0
178 27 176 0
-178 -27 0
-178 -176 0
179 177 178 0
-179 -177 0
-179 -178 0
180 -37 -28 0
-180 37 0
-180 28 0
181 -46 -28 0
-181 46 0
-181 28 0
182 -37 -46 0
-182 37 0
-182 46 0
183 181 182 0
-183 -181 0
-183 -182 0
184 180 -183 0
-184 -180 0
-184 183 0
185 -37 46 0
-185 37 0
-185 -46 0
186 -46 37 0
-186 46 0
-186 -37 0
187 186 185 0
-187 -186 0
-187 -185 0
188 -28 -187 0
-188 28 0
-188 187 0
189 28 187 0
-189 -28 0
-189 -187 0
190 188 189 0
-190 -188 0
-190 -189 0
191 -38 -29 0
-191 38 0
-191 29 0
192 -47 -29 0
-192 47 0
-192 29 0
193 -38 -47 0
-193 38 0
-193 47 0
194 192 193 0
-194 -192 0
-194 -193 0
195 191 -194 0
-195 -191 0
-195 194 0
196 -38 47 0
-196 38 0
-196 -47 0
197 -47 38 0
-197 47 0
-197 -38 0
198 197 196 0
-198 -197 0
-198 -196 0
199 -29 -198 0
-199 29 0
-199 198 0
200 29 198 0
-200 -29 0
-200 -198 0
201 199 200 0
-201 -199 0
-201 -200 0
202 -39 -48 0
-202 39 0
-202 48 0
203 -39 48 0
-203 39 0
-203 -48 0
204 -48 39 0
-204 48 0
-204 -39 0
205 204 203 0
-205 -204 0
-205 -203 0
206 -51 -60 0
-206 51 0
-206 60 0
207 -51 60 0
-207 51 0
-207 -60 0
208 -60 51 0
-208 60 0
-208 -51 0
209 208 207 0
-209 -208 0
-209 -207 0
210 -52 -61 0
-210 52 0
-210 61 0
211 -70 -52 0
-211 70 0
-211 52 0
212 -70 -61 0
-212 70 0
-212 61 0
213 212 211 0
-213 -212 0
-213 -211 0
214 210 -213 0
-214 -210 0
-214 213 0
215 -61 70 0
-215 61 0
-215 -70 0
216 -70 61 0
-216 70 0
-216 -61 0
217 216 215 0
-217 -216 0
-217 -215 0
218 -52 -217 0
-218 52 0
-218 217 0
219 52 217 0
-219 -52 0
-219 -217 0
220 218 219 0
-220 -218 0
-220 -219 0
221 -53 -62 0
-221 53 0
-221 62 0
222 -71 -53 0
-222 71 0
-222 53 0
223 -71 -62 0
-223 71 0
-223 62 0
224 223 222 0
-224 -223 0
-224 -222 0
225 221 -224 0
-225 -221 0
-225 224 0
226 -62 71 0
-226 62 0
-226 -71 0
227 -71 62 0
-227 71 0
-227 -62 0
228 227 226 0
-228 -227 0
-228 -226 0
229 -53 -228 0
-229 53 0
-229 228 0
230 53 228 0
-230 -53 0
-230 -228 0
231 229 230 0
-231 -229 0
-231 -230 0
232 -54 -63 0
-232 54 0
-232 63 0
233 -72 -54 0
-233 72 0
-233 54 0
234 -72 -63 0
-234 72 0
-234 63 0
235 233 234 0
-235 -233 0
-235 -234 0
236 232 -235 0
-236 -232 0
-236 235 0
237 -63 72 0
-237 63 0
-237 -72 0
238 -72 63 0
-238 72 0
-238 -63 0
239 238 237 0
-239 -238 0
-239 -237 0
240 -54 -239 0
-240 54 0
-240 239 0
241 54 239 0
-241 -54 0
-241 -239 0
242 240 241 0
-242 -240 0
-242 -241 0
243 -55 -64 0
-243 55 0
-243 64 0
244 -73 -55 0
-244 73 0
-244 55 0
245 -73 -64 0
-245 73 0
-245 64 0
246 244 245 0
-246 -244 0
-246 -245 0
247 243 -246 0
-247 -243 0
-247 246 0
248 -64 73 0
-248 64 0
-248 -73 0
249 -73 64 0
-249 73 0
-249 -64 0
250 249 248 0
-250 -249 0
-250 -248 0
251 -55 -250 0
-251 55 0
-251 250 0
252 55 250 0
-252 -55 0
-252 -250 0
253 251 252 0
-253 -251 0
-253 -252 0
254 -56 -65 0
-254 56 0
-254 65 0
255 -74 -56 0
-255 74 0
-255 56 0
256 -74 -65 0
-256 74 0
-256 65 0
257 256 255 0
-257 -256 0
-257 -255 0
258 254 -257 0
-258 -254 0
-258 257 0
259 -65 74 0
-259 65 0
-259 -74 0
260 -74 65 0
-260 74 0
-260 -65 0
261 260 259 0
-261 -260 0
-261 -259 0
262 -56 -261 0
-262 56 0
-262 261 0
263 56 261 0
-263 -56 0
-263 -261 0
264 262 263 0
-264 -262 0
-264 -263 0
265 -57 -66 0
-265 57 0
-265 66 0
266 -75 -57 0
-266 75 0
-266 57 0
267 -75 -66 0
-267 75 0
-267 66 0
268 267 266 0
-268 -267 0
-268 -266 0
269 265 -268 0
-269 -265 0
-269 268 0
270 -66 75 0
-270 66 0
-270 -75 0
271 -75 66 0
-271 75 0
-271 -66 0
272 271 270 0
-272 -271 0
-272 -270 0
273 -57 -272 0
-273 57 0
-273 272 0
274 57 272 0
-274 -57 0
-274 -272 0
275 273 274 0
-275 -273 0
-275 -274 0
276 -58 -67 0
-276 58 0
-276 67 0
277 -76 -58 0
-277 76 0
-277 58 0
278 -76 -67 0
-278 76 0
-278 67 0
279 278 277 0
-279 -278 0
-279 -277 0
280 276 -279 0
-280 -276 0
-280 279 0
281 -67 76 0
-281 67 0
-281 -76 0
282 -76 67 0
-282 76 0
-282 -67 0
283 282 281 0
-283 -282 0
-283 -281 0
284 -58 -283 0
-284 58 0
-284 283 0
285 58 283 0
-285 -58 0
-285 -283 0
286 284 285 0
-286 -284 0
-286 -285 0
287 -59 -68 0
-287 59 0
-287 68 0
288 -77 -59 0
-288 77 0
-288 59 0
289 -77 -68 0
-289 77 0
-289 68 0
290 289 288 0
-290 -289 0
-290 -288 0
291 287 -290 0
-291 -287 0
-291 290 0
292 -68 77 0
-292 68 0
-292 -77 0
293 -77 68 0
-293 77 0
-293 -68 0
294 293 292 0
-294 -293 0
-294 -292 0
295 -59 -294 0
-295 59 0
-295 294 0
296 59 294 0
-296 -59 0
-296 -294 0
297 295 296 0
-297 -295 0
-297 -296 0
298 -78 -69 0
-298 78 0
-298 69 0
299 -69 78 0
-299 69 0
-299 -78 0
300 -78 69 0
-300 78 0
-300 -69 0
301 300 299 0
-301 -300 0
-301 -299 0
302 -81 -90 0
-302 81 0
-302 90 0
303 -81 90 0
-303 81 0
-303 -90 0
304 -90 81 0
-304 90 0
-304 -81 0
305 304 303 0
-305 -304 0
-305 -303 0
306 -82 -91 0
-306 82 0
-306 91 0
307 -82 -100 0
-307 82 0
-307 100 0
308 -100 -91 0
-308 100 0
-308 91 0
309 307 308 0
-309 -307 0
-309 -308 0
310 306 -309 0
-310 -306 0
-310 309 0
311 -91 100 0
-311 91 0
-311 -100 0
312 -100 91 0
-312 100 0
-312 -91 0
313 312 311 0
-313 -312 0
-313 -311 0
314 -82 -313 0
-314 82 0
-314 313 0
315 82 313 0
-315 -82 0
-315 -313 0
316 314 315 0
-316 -314 0
-316 -315 0
317 -83 -92 0
-317 83 0
-317 92 0
318 -83 -101 0
-318 83 0
-318 101 0
319 -101 -92 0
-319 101 0
-319 92 0
320 318 319 0
-320 -318 0
-320 -319 0
321 317 -320 0
-321 -317 0
-321 320 0
322 -92 101 0
-322 92 0
-322 -101 0
323 -101 92 0
-323 101 0
-323 -92 0
324 323 322 0
-324 -323 0
-324 -322 0
325 -83 -324 0
-325 83 0
-325 324 0
326 83 324 0
-326 -83 0
-326 -324 0
327 325 326 0
-327 -325 0
-327 -326 0
328 -84 -93 0
-328 84 0
-328 93 0
329 -84 -102 0
-329 84 0
-329 102 0
330 -102 -93 0
-330 102 0
-330 93 0
331 329 330 0
-331 -329 0
-331 -330 0
332 328 -331 0
-332 -328 0
-332 331 0
333 -93 102 0
-333 93 0
-333 -102 0
334 -102 93 0
-334 102 0
-334 -93 0
335 334 333 0
-335 -334 0
-335 -333 0
336 -84 -335 0
-336 84 0
-336 335 0
337 84 335 0
-337 -84 0
-337 -335 0
338 336 337 0
-338 -336 0
-338 -337 0
339 -85 -94 0
-339 85 0
-339 94 0
340 -85 -103 0
-340 85 0
-340 103 0
341 -103 -94 0
-341 103 0
-341 94 0
342 340 341 0
-342 -340 0
-342 -341 0
343 339 -342 0
-343 -339 0
-343 342 0
344 -94 103 0
-344 94 0
-344 -103 0
345 -103 94 0
-345 103 0
-345 -94 0
346 345 344 0
-346 -345 0
-346 -344 0
347 -85 -346 0
-347 85 0
-347 346 0
348 85 346 0
-348 -85 0
-348 -346 0
349 347 348 0
-349 -347 0
-349 -348 0
350 -86 -95 0
-350 86 0
-350 95 0
351 -86 -104 0
-351 86 0
-351 104 0
352 -104 -95 0
-352 104 0
-352 95 0
353 351 352 0
-353 -351 0
-353 -352 0
354 350 -353 0
-354 -350 0
-354 353 0
355 -95 104 0
-355 95 0
-355 -104 0
356 -104 95 0
-356 104 0
-356 -95 0
357 356 355 0
-357 -356 0
-357 -355 0
358 -86 -357 0
-358 86 0
-358 357 0
359 86 357 0
-359 -86 0
-359 -357 0
360 358 359 0
-360 -358 0
-360 -359 0
361 -87 -96 0
-361 87 0
-361 96 0
362 -87 -105 0
-362 87 0
-362 105 0
363 -105 -96 0
-363 105 0
-363 96 0
364 362 363 0
-364 -362 0
-364 -363 0
365 361 -364 0
-365 -361 0
-365 364 0
366 -96 105 0
-366 96 0
-366 -105 0
367 -105 96 0
-367 105 0
-367 -96 0
368 367 366 0
-368 -367 0
-368 -366 0
369 -87 -368 0
-369 87 0
-369 368 0
370 87 368 0
-370 -87 0
-370 -368 0
371 369 370 0
-371 -369 0
-371 -370 0
372 -88 -97 0
-372 88 0
-372 97 0
373 -88 -106 0
-373 88 0
-373 106 0
374 -106 -97 0
-374 106 0
-374 97 0
375 373 374 0
-375 -373 0
-375 -374 0
376 372 -375 0
-376 -372 0
-376 375 0
377 -97 106 0
-377 97 0
-377 -106 0
378 -106 97 0
-378 106 0
-378 -97 0
379 378 377 0
-379 -378 0
-379 -377 0
380 -88 -379 0
-380 88 0
-380 379 0
381 88 379 0
-381 -88 0
-381 -379 0
382 380 381 0
-382 -380 0
-382 -381 0
383 -89 -98 0
-383 89 0
-383 98 0
384 -89 -107 0
-384 89 0
-384 107 0
385 -107 -98 0
-385 107 0
-385 98 0
386 384 385 0
-386 -384 0
-386 -385 0
387 383 -386 0
-387 -383 0
-387 386 0
388 -98 107 0
-388 98 0
-388 -107 0
389 -107 98 0
-389 107 0
-389 -98 0
390 389 388 0
-390 -389 0
-390 -388 0
391 -89 -390 0
-391 89 0
-391 390 0
392 89 390 0
-392 -89 0
-392 -390 0
393 391 392 0
-393 -391 0
-393 -392 0
394 -108 -99 0
-394 108 0
-394 99 0
395 -99 108 0
-395 99 0
-395 -108 0
396 -108 99 0
-396 108 0
-396 -99 0
397 396 395 0
-397 -396 0
-397 -395 0
398 -110 124 0
-398 110 0
-398 -124 0
399 110 124 0
-399 -110 0
-399 -124 0
400 -110 -124 0
-400 110 0
-400 124 0
401 400 399 0
-401 -400 0
-401 -399 0
402 118 135 0
-402 -118 0
-402 -135 0
403 -50 135 0
-403 50 0
-403 -135 0
404 -50 118 0
-404 50 0
-404 -118 0
405 404 403 0
-405 -404 0
-405 -403 0
406 -405 402 0
-406 405 0
-406 -402 0
407 50 118 0
-407 -50 0
-407 -118 0
408 -50 -118 0
-408 50 0
-408 118 0
409 408 407 0
-409 -408 0
-409 -407 0
410 135 -409 0
-410 -135 0
-410 409 0
411 -135 409 0
-411 135 0
-411 -409 0
412 411 410 0
-412 -411 0
-412 -410 0
413 129 146 0
-413 -129 0
-413 -146 0
414 209 146 0
-414 -209 0
-414 -146 0
415 209 129 0
-415 -209 0
-415 -129 0
416 415 414 0
-416 -415 0
-416 -414 0
417 413 -416 0
-417 -413 0
-417 416 0
418 -209 129 0
-418 209 0
-418 -129 0
419 209 -129 0
-419 -209 0
-419 129 0
420 418 419 0
-420 -418 0
-420 -419 0
421 146 -420 0
-421 -146 0
-421 420 0
422 -146 420 0
-422 146 0
-422 -420 0
423 422 421 0
-423 -422 0
-423 -421 0
424 140 157 0
-424 -140 0
-424 -157 0
425 220 157 0
-425 -220 0
-425 -157 0
426 140 220 0
-426 -140 0
-426 -220 0
427 426 425 0
-427 -426 0
-427 -425 0
428 424 -427 0
-428 -424 0
-428 427 0
429 140 -220 0
-429 -140 0
-429 220 0
430 -140 220 0
-430 140 0
-430 -220 0
431 429 430 0
-431 -429 0
-431 -430 0
432 157 -431 0
-432 -157 0
-432 431 0
433 -157 431 0
-433 157 0
-433 -431 0
434 433 432 0
-434 -433 0
-434 -432 0
435 151 168 0
-435 -151 0
-435 -168 0
436 231 168 0
-436 -231 0
-436 -168 0
437 151 231 0
-437 -151 0
-437 -231 0
438 437 436 0
-438 -437 0
-438 -436 0
439 435 -438 0
-439 -435 0
-439 438 0
440 151 -231 0
-440 -151 0
-440 231 0
441 -151 231 0
-441 151 0
-441 -231 0
442 440 441 0
-442 -440 0
-442 -441 0
443 168 -442 0
-443 -168 0
-443 442 0
444 -168 442 0
-444 168 0
-444 -442 0
445 444 443 0
-445 -444 0
-445 -443 0
446 162 179 0
-446 -162 0
-446 -179 0
447 242 179 0
-447 -242 0
-447 -179 0
448 162 242 0
-448 -162 0
-448 -242 0
449 448 447 0
-449 -448 0
-449 -447 0
450 446 -449 0
-450 -446 0
-450 449 0
451 162 -242 0
-451 -162 0
-451 242 0
452 -162 242 0
-452 162 0
-452 -242 0
453 451 452 0
-453 -451 0
-453 -452 0
454 179 -453 0
-454 -179 0
-454 453 0
455 -179 453 0
-455 179 0
-455 -453 0
456 455 454 0
-456 -455 0
-456 -454 0
457 173 190 0
-457 -173 0
-457 -190 0
458 253 190 0
-458 -253 0
-458 -190 0
459 173 253 0
-459 -173 0
-459 -253 0
460 459 458 0
-460 -459 0
-460 -458 0
461 457 -460 0
-461 -457 0
-461 460 0
462 173 -253 0
-462 -173 0
-462 253 0
463 -173 253 0
-463 173 0
-463 -253 0
464 462 463 0
-464 -462 0
-464 -463 0
465 190 -464 0
-465 -190 0
-465 464 0
466 -190 464 0
-466 190 0
-466 -464 0
467 466 465 0
-467 -466 0
-467 -465 0
468 184 201 0
-468 -184 0
-468 -201 0
469 264 201 0
-469 -264 0
-469 -201 0
470 184 264 0
-470 -184 0
-470 -264 0
471 470 469 0
-471 -470 0
-471 -469 0
472 468 -471 0
-472 -468 0
-472 471 0
473 184 -264 0
-473 -184 0
-473 264 0
474 -184 264 0
-474 184 0
-474 -264 0
475 473 474 0
-475 -473 0
-475 -474 0
476 201 -475 0
-476 -201 0
-476 475 0
477 -201 475 0
-477 201 0
-477 -475 0
478 477 476 0
-478 -477 0
-478 -476 0
479 205 195 0
-479 -205 0
-479 -195 0
480 205 275 0
-480 -205 0
-480 -275 0
481 195 275 0
-481 -195 0
-481 -275 0
482 480 481 0
-482 -480 0
-482 -481 0
483 479 -482 0
-483 -479 0
-483 482 0
484 195 -275 0
-484 -195 0
-484 275 0
485 -195 275 0
-485 195 0
-485 -275 0
486 484 485 0
-486 -484 0
-486 -485 0
487 205 -486 0
-487 -205 0
-487 486 0
488 -205 486 0
-488 205 0
-488 -486 0
489 488 487 0
-489 -488 0
-489 -487 0
490 -49 -202 0
-490 49 0
-490 202 0
491 -49 286 0
-491 49 0
-491 -286 0
492 -202 286 0
-492 202 0
-492 -286 0
493 491 492 0
-493 -491 0
-493 -492 0
494 490 -493 0
-494 -490 0
-494 493 0
495 -202 -286 0
-495 202 0
-495 286 0
496 202 286 0
-496 -202 0
-496 -286 0
497 495 496 0
-497 -495 0
-497 -496 0
498 -49 -497 0
-498 49 0
-498 497 0
499 49 497 0
-499 -49 0
-499 -497 0
500 498 499 0
-500 -498 0
-500 -499 0
501 -80 214 0
-501 80 0
-501 -214 0
502 80 214 0
-502 -80 0
-502 -214 0
503 -80 -214 0
-503 80 0
-503 214 0
504 503 502 0
-504 -503 0
-504 -502 0
505 305 225 0
-505 -305 0
-505 -225 0
506 -305 225 0
-506 305 0
-506 -225 0
507 305 -225 0
-507 -305 0
-507 225 0
508 506 507 0
-508 -506 0
-508 -507 0
509 236 316 0
-509 -236 0
-509 -316 0
510 -302 236 0
-510 302 0
-510 -236 0
511 -302 316 0
-511 302 0
-511 -316 0
512 510 511 0
-512 -510 0
-512 -511 0
513 509 -512 0
-513 -509 0
-513 512 0
514 302 316 0
-514 -302 0
-514 -316 0
515 -302 -316 0
-515 302 0
-515 316 0
516 515 514 0
-516 -515 0
-516 -514 0
517 236 -516 0
-517 -236 0
-517 516 0
518 -236 516 0
-518 236 0
-518 -516 0
519 518 517 0
-519 -518 0
-519 -517 0
520 247 327 0
-520 -247 0
-520 -327 0
521 310 247 0
-521 -310 0
-521 -247 0
522 310 327 0
-522 -310 0
-522 -327 0
523 521 522 0
-523 -521 0
-523 -522 0
524 -523 520 0
-524 523 0
-524 -520 0
525 -310 327 0
-525 310 0
-525 -327 0
526 310 -327 0
-526 -310 0
-526 327 0
527 526 525 0
-527 -526 0
-527 -525 0
528 247 -527 0
-528 -247 0
-528 527 0
529 -247 527 0
-529 247 0
-529 -527 0
530 528 529 0
-530 -528 0
-530 -529 0
531 258 338 0
-531 -258 0
-531 -338 0
532 258 321 0
-532 -258 0
-532 -321 0
533 321 338 0
-533 -321 0
-533 -338 0
534 532 533 0
-534 -532 0
-534 -533 0
535 -534 531 0
-535 534 0
-535 -531 0
536 -321 338 0
-536 321 0
-536 -338 0
537 321 -338 0
-537 -321 0
-537 338 0
538 537 536 0
-538 -537 0
-538 -536 0
539 258 -538 0
-539 -258 0
-539 538 0
540 -258 538 0
-540 258 0
-540 -538 0
541 539 540 0
-541 -539 0
-541 -540 0
542 269 349 0
-542 -269 0
-542 -349 0
543 332 269 0
-543 -332 0
-543 -269 0
544 332 349 0
-544 -332 0
-544 -349 0
545 543 544 0
-545 -543 0
-545 -544 0
546 -545 542 0
-546 545 0
-546 -542 0
547 -332 349 0
-547 332 0
-547 -349 0
548 332 -349 0
-548 -332 0
-548 349 0
549 548 547 0
-549 -548 0
-549 -547 0
550 269 -549 0
-550 -269 0
-550 549 0
551 -269 549 0
-551 269 0
-551 -549 0
552 550 551 0
-552 -550 0
-552 -551 0
553 280 360 0
-553 -280 0
-553 -360 0
554 343 280 0
-554 -343 0
-554 -280 0
555 343 360 0
-555 -343 0
-555 -360 0
556 554 555 0
-556 -554 0
-556 -555 0
557 -556 553 0
-557 556 0
-557 -553 0
558 -343 360 0
-558 343 0
-558 -360 0
559 343 -360 0
-559 -343 0
-559 360 0
560 559 558 0
-560 -559 0
-560 -558 0
561 280 -560 0
-561 -280 0
-561 560 0
562 -280 560 0
-562 280 0
-562 -560 0
563 561 562 0
-563 -561 0
-563 -562 0
564 291 371 0
-564 -291 0
-564 -371 0
565 291 354 0
-565 -291 0
-565 -354 0
566 354 371 0
-566 -354 0
-566 -371 0
567 565 566 0
-567 -565 0
-567 -566 0
568 -567 564 0
-568 567 0
-568 -564 0
569 -354 371 0
-569 354 0
-569 -371 0
570 354 -371 0
-570 -354 0
-570 371 0
571 570 569 0
-571 -570 0
-571 -569 0
572 291 -571 0
-572 -291 0
-572 571 0
573 -291 571 0
-573 291 0
-573 -571 0
574 572 573 0
-574 -572 0
-574 -573 0
575 -298 382 0
-575 298 0
-575 -382 0
576 -298 365 0
-576 298 0
-576 -365 0
577 365 382 0
-577 -365 0
-577 -382 0
578 576 577 0
-578 -576 0
-578 -577 0
579 575 -578 0
-579 -575 0
-579 578 0
580 -365 382 0
-580 365 0
-580 -382 0
581 365 -382 0
-581 -365 0
-581 382 0
582 581 580 0
-582 -581 0
-582 -580 0
583 -298 -582 0
-583 298 0
-583 582 0
584 298 582 0
-584 -298 0
-584 -582 0
585 583 584 0
-585 -583 0
-585 -584 0
586 376 393 0
-586 -376 0
-586 -393 0
587 -376 393 0
-587 376 0
-587 -393 0
588 376 -393 0
-588 -376 0
-588 393 0
589 588 587 0
-589 -588 0
-589 -587 0
590 397 387 0
-590 -397 0
-590 -387 0
591 397 -387 0
-591 -397 0
-591 387 0
592 -397 387 0
-592 397 0
-592 -387 0
593 592 591 0
-593 -592 0
-593 -591 0
594 -109 -394 0
-594 109 0
-594 394 0
595 -109 394 0
-595 109 0
-595 -394 0
596 109 -394 0
-596 -109 0
-596 394 0
597 596 595 0
-597 -596 0
-597 -595 0
598 -398 412 0
-598 398 0
-598 -412 0
599 398 412 0
-599 -398 0
-599 -412 0
600 -398 -412 0
-600 398 0
-600 412 0
601 600 599 0
-601 -600 0
-601 -599 0
602 406 423 0
-602 -406 0
-602 -423 0
603 -406 423 0
-603 406 0
-603 -423 0
604 406 -423 0
-604 -406 0
-604 423 0
605 604 603 0
-605 -604 0
-605 -603 0
606 417 434 0
-606 -417 0
-606 -434 0
607 -206 434 0
-607 206 0
-607 -434 0
608 -206 417 0
-608 206 0
-608 -417 0
609 608 607 0
-609 -608 0
-609 -607 0
610 606 -609 0
-610 -606 0
-610 609 0
611 206 417 0
-611 -206 0
-611 -417 0
612 -206 -417 0
-612 206 0
-612 417 0
613 611 612 0
-613 -611 0
-613 -612 0
614 434 -613 0
-614 -434 0
-614 613 0
615 -434 613 0
-615 434 0
-615 -613 0
616 614 615 0
-616 -614 0
-616 -615 0
617 445 428 0
-617 -445 0
-617 -428 0
618 504 445 0
-618 -504 0
-618 -445 0
619 504 428 0
-619 -504 0
-619 -428 0
620 619 618 0
-620 -619 0
-620 -618 0
621 617 -620 0
-621 -617 0
-621 620 0
622 -504 428 0
-622 504 0
-622 -428 0
623 504 -428 0
-623 -504 0
-623 428 0
624 622 623 0
-624 -622 0
-624 -623 0
625 -624 445 0
-625 624 0
-625 -445 0
626 624 -445 0
-626 -624 0
-626 445 0
627 625 626 0
-627 -625 0
-627 -626 0
628 456 439 0
-628 -456 0
-628 -439 0
629 456 508 0
-629 -456 0
-629 -508 0
630 508 439 0
-630 -508 0
-630 -439 0
631 630 629 0
-631 -630 0
-631 -629 0
632 628 -631 0
-632 -628 0
-632 631 0
633 -508 439 0
-633 508 0
-633 -439 0
634 508 -439 0
-634 -508 0
-634 439 0
635 633 634 0
-635 -633 0
-635 -634 0
636 -635 456 0
-636 635 0
-636 -456 0
637 635 -456 0
-637 -635 0
-637 456 0
638 637 636 0
-638 -637 0
-638 -636 0
639 467 450 0
-639 -467 0
-639 -450 0
640 519 467 0
-640 -519 0
-640 -467 0
641 519 450 0
-641 -519 0
-641 -450 0
642 640 641 0
-642 -640 0
-642 -641 0
643 -642 639 0
-643 642 0
-643 -639 0
644 -519 450 0
-644 519 0
-644 -450 0
645 519 -450 0
-645 -519 0
-645 450 0
646 645 644 0
-646 -645 0
-646 -644 0
647 467 -646 0
-647 -467 0
-647 646 0
648 -467 646 0
-648 467 0
-648 -646 0
649 647 648 0
-649 -647 0
-649 -648 0
650 478 461 0
-650 -478 0
-650 -461 0
651 478 530 0
-651 -478 0
-651 -530 0
652 530 461 0
-652 -530 0
-652 -461 0
653 651 652 0
-653 -651 0
-653 -652 0
654 650 -653 0
-654 -650 0
-654 653 0
655 -530 461 0
-655 530 0
-655 -461 0
656 530 -461 0
-656 -530 0
-656 461 0
657 656 655 0
-657 -656 0
-657 -655 0
658 -657 478 0
-658 657 0
-658 -478 0
659 657 -478 0
-659 -657 0
-659 478 0
660 658 659 0
-660 -658 0
-660 -659 0
661 489 472 0
-661 -489 0
-661 -472 0
662 489 541 0
-662 -489 0
-662 -541 0
663 541 472 0
-663 -541 0
-663 -472 0
664 662 663 0
-664 -662 0
-664 -663 0
665 -664 661 0
-665 664 0
-665 -661 0
666 -541 472 0
-666 541 0
-666 -472 0
667 541 -472 0
-667 -541 0
-667 472 0
668 667 666 0
-668 -667 0
-668 -666 0
669 489 -668 0
-669 -489 0
-669 668 0
670 -489 668 0
-670 489 0
-670 -668 0
671 669 670 0
-671 -669 0
-671 -670 0
672 500 483 0
-672 -500 0
-672 -483 0
673 500 552 0
-673 -500 0
-673 -552 0
674 552 483 0
-674 -552 0
-674 -483 0
675 674 673 0
-675 -674 0
-675 -673 0
676 -675 672 0
-676 675 0
-676 -672 0
677 -552 483 0
-677 552 0
-677 -483 0
678 552 -483 0
-678 -552 0
-678 483 0
679 677 678 0
-679 -677 0
-679 -678 0
680 -679 500 0
-680 679 0
-680 -500 0
681 679 -500 0
-681 -679 0
-681 500 0
682 680 681 0
-682 -680 0
-682 -681 0
683 297 494 0
-683 -297 0
-683 -494 0
684 297 563 0
-684 -297 0
-684 -563 0
685 494 563 0
-685 -494 0
-685 -563 0
686 684 685 0
-686 -684 0
-686 -685 0
687 -686 683 0
-687 686 0
-687 -683 0
688 494 -563 0
-688 -494 0
-688 563 0
689 -494 563 0
-689 494 0
-689 -563 0
690 689 688 0
-690 -689 0
-690 -688 0
691 297 -690 0
-691 -297 0
-691 690 0
692 -297 690 0
-692 297 0
-692 -690 0
693 691 692 0
-693 -691 0
-693 -692 0
694 301 574 0
-694 -301 0
-694 -574 0
695 301 -574 0
-695 -301 0
-695 574 0
696 -301 574 0
-696 301 0
-696 -574 0
697 696 695 0
-697 -696 0
-697 -695 0
698 -79 585 0
-698 79 0
-698 -585 0
699 -79 -585 0
-699 79 0
-699 585 0
700 79 585 0
-700 -79 0
-700 -585 0
701 700 699 0
-701 -700 0
-701 -699 0
702 605 -598 0
-702 -605 0
-702 598 0
703 605 598 0
-703 -605 0
-703 -598 0
704 -605 -598 0
-704 605 0
-704 598 0
705 704 703 0
-705 -704 0
-705 -703 0
706 -602 616 0
-706 602 0
-706 -616 0
707 602 616 0
-707 -602 0
-707 -616 0
708 -602 -616 0
-708 602 0
-708 616 0
709 707 708 0
-709 -707 0
-709 -708 0
710 627 610 0
-710 -627 0
-710 -610 0
711 627 -610 0
-711 -627 0
-711 610 0
712 -627 610 0
-712 627 0
-712 -610 0
713 712 711 0
-713 -712 0
-713 -711 0
714 638 621 0
-714 -638 0
-714 -621 0
715 -501 638 0
-715 501 0
-715 -638 0
716 -501 621 0
-716 501 0
-716 -621 0
717 716 715 0
-717 -716 0
-717 -715 0
718 -717 714 0
-718 717 0
-718 -714 0
719 501 621 0
-719 -501 0
-719 -621 0
720 -501 -621 0
-720 501 0
-720 621 0
721 719 720 0
-721 -719 0
-721 -720 0
722 638 -721 0
-722 -638 0
-722 721 0
723 -638 721 0
-723 638 0
-723 -721 0
724 722 723 0
-724 -722 0
-724 -723 0
725 632 649 0
-725 -632 0
-725 -649 0
726 649 -505 0
-726 -649 0
-726 505 0
727 632 -505 0
-727 -632 0
-727 505 0
728 727 726 0
-728 -727 0
-728 -726 0
729 725 -728 0
-729 -725 0
-729 728 0
730 632 505 0
-730 -632 0
-730 -505 0
731 -632 -505 0
-731 632 0
-731 505 0
732 731 730 0
-732 -731 0
-732 -730 0
733 649 -732 0
-733 -649 0
-733 732 0
734 -649 732 0
-734 649 0
-734 -732 0
735 733 734 0
-735 -733 0
-735 -734 0
736 643 660 0
-736 -643 0
-736 -660 0
737 513 660 0
-737 -513 0
-737 -660 0
738 643 513 0
-738 -643 0
-738 -513 0
739 737 738 0
-739 -737 0
-739 -738 0
740 736 -739 0
-740 -736 0
-740 739 0
741 643 -513 0
-741 -643 0
-741 513 0
742 -643 513 0
-742 643 0
-742 -513 0
743 742 741 0
-743 -742 0
-743 -741 0
744 -743 660 0
-744 743 0
-744 -660 0
745 743 -660 0
-745 -743 0
-745 660 0
746 744 745 0
-746 -744 0
-746 -745 0
747 654 671 0
-747 -654 0
-747 -671 0
748 671 524 0
-748 -671 0
-748 -524 0
749 654 524 0
-749 -654 0
-749 -524 0
750 749 748 0
-750 -749 0
-750 -748 0
751 -750 747 0
-751 750 0
-751 -747 0
752 654 -524 0
-752 -654 0
-752 524 0
753 -654 524 0
-753 654 0
-753 -524 0
754 752 753 0
-754 -752 0
-754 -753 0
755 671 -754 0
-755 -671 0
-755 754 0
756 -671 754 0
-756 671 0
-756 -754 0
757 755 756 0
-757 -755 0
-757 -756 0
758 665 682 0
-758 -665 0
-758 -682 0
759 682 535 0
-759 -682 0
-759 -535 0
760 665 535 0
-760 -665 0
-760 -535 0
761 760 759 0
-761 -760 0
-761 -759 0
762 758 -761 0
-762 -758 0
-762 761 0
763 665 -535 0
-763 -665 0
-763 535 0
764 -665 535 0
-764 665 0
-764 -535 0
765 763 764 0
-765 -763 0
-765 -764 0
766 682 -765 0
-766 -682 0
-766 765 0
767 -682 765 0
-767 682 0
-767 -765 0
768 767 766 0
-768 -767 0
-768 -766 0
769 676 693 0
-769 -676 0
-769 -693 0
770 693 546 0
-770 -693 0
-770 -546 0
771 676 546 0
-771 -676 0
-771 -546 0
772 770 771 0
-772 -770 0
-772 -771 0
773 -772 769 0
-773 772 0
-773 -769 0
774 676 -546 0
-774 -676 0
-774 546 0
775 -676 546 0
-775 676 0
-775 -546 0
776 775 774 0
-776 -775 0
-776 -774 0
777 693 -776 0
-777 -693 0
-777 776 0
778 -693 776 0
-778 693 0
-778 -776 0
779 777 778 0
-779 -777 0
-779 -778 0
780 687 697 0
-780 -687 0
-780 -697 0
781 557 697 0
-781 -557 0
-781 -697 0
782 687 557 0
-782 -687 0
-782 -557 0
783 781 782 0
-783 -781 0
-783 -782 0
784 780 -783 0
-784 -780 0
-784 783 0
785 687 -557 0
-785 -687 0
-785 557 0
786 -687 557 0
-786 687 0
-786 -557 0
787 785 786 0
-787 -785 0
-787 -786 0
788 -787 697 0
-788 787 0
-788 -697 0
789 787 -697 0
-789 -787 0
-789 697 0
790 788 789 0
-790 -788 0
-790 -789 0
791 -694 701 0
-791 694 0
-791 -701 0
792 701 568 0
-792 -701 0
-792 -568 0
793 -694 568 0
-793 694 0
-793 -568 0
794 792 793 0
-794 -792 0
-794 -793 0
795 791 -794 0
-795 -791 0
-795 794 0
796 -694 -568 0
-796 694 0
-796 568 0
797 694 568 0
-797 -694 0
-797 -568 0
798 796 797 0
-798 -796 0
-798 -797 0
799 701 -798 0
-799 -701 0
-799 798 0
800 -701 798 0
-800 701 0
-800 -798 0
801 800 799 0
-801 -800 0
-801 -799 0
802 589 -698 0
-802 -589 0
-802 698 0
803 589 579 0
-803 -589 0
-803 -579 0
804 579 -698 0
-804 -579 0
-804 698 0
805 804 803 0
-805 -804 0
-805 -803 0
806 802 -805 0
-806 -802 0
-806 805 0
807 -579 -698 0
-807 579 0
-807 698 0
808 579 698 0
-808 -579 0
-808 -698 0
809 808 807 0
-809 -808 0
-809 -807 0
810 589 -809 0
-810 -589 0
-810 809 0
811 -589 809 0
-811 589 0
-811 -809 0
812 810 811 0
-812 -810 0
-812 -811 0
813 -586 593 0
-813 586 0
-813 -593 0
814 586 593 0
-814 -586 0
-814 -593 0
815 -586 -593 0
-815 586 0
-815 593 0
816 814 815 0
-816 -814 0
-816 -815 0
817 597 -590 0
-817 -597 0
-817 590 0
818 597 590 0
-818 -597 0
-818 -590 0
819 -597 -590 0
-819 597 0
-819 590 0
820 818 819 0
-820 -818 0
-820 -819 0
821 702 709 0
-821 -702 0
-821 -709 0
822 -702 -709 0
-822 702 0
-822 709 0
823 821 822 0
-823 -821 0
-823 -822 0
824 -702 709 0
-824 702 0
-824 -709 0
825 706 713 0
-825 -706 0
-825 -713 0
826 -706 -713 0
-826 706 0
-826 713 0
827 825 826 0
-827 -825 0
-827 -826 0
828 -827 -824 0
-828 827 0
-828 824 0
829 827 824 0
-829 -827 0
-829 -824 0
830 829 828 0
-830 -829 0
-830 -828 0
831 -824 713 0
-831 824 0
-831 -713 0
832 -824 -706 0
-832 824 0
-832 706 0
833 -706 713 0
-833 706 0
-833 -713 0
834 833 832 0
-834 -833 0
-834 -832 0
835 -834 831 0
-835 834 0
-835 -831 0
836 710 724 0
-836 -710 0
-836 -724 0
837 -710 -724 0
-837 710 0
-837 724 0
838 837 836 0
-838 -837 0
-838 -836 0
839 -838 835 0
-839 838 0
-839 -835 0
840 838 -835 0
-840 -838 0
-840 835 0
841 839 840 0
-841 -839 0
-841 -840 0
842 724 835 0
-842 -724 0
-842 -835 0
843 -710 835 0
-843 710 0
-843 -835 0
844 -710 724 0
-844 710 0
-844 -724 0
845 844 843 0
-845 -844 0
-845 -843 0
846 842 -845 0
-846 -842 0
-846 845 0
847 735 -718 0
-847 -735 0
-847 718 0
848 -735 718 0
-848 735 0
-848 -718 0
849 848 847 0
-849 -848 0
-849 -847 0
850 -849 846 0
-850 849 0
-850 -846 0
851 849 -846 0
-851 -849 0
-851 846 0
852 851 850 0
-852 -851 0
-852 -850 0
853 846 735 0
-853 -846 0
-853 -735 0
854 846 718 0
-854 -846 0
-854 -718 0
855 735 718 0
-855 -735 0
-855 -718 0
856 854 855 0
-856 -854 0
-856 -855 0
857 853 -856 0
-857 -853 0
-857 856 0
858 746 -729 0
-858 -746 0
-858 729 0
859 -746 729 0
-859 746 0
-859 -729 0
860 858 859 0
-860 -858 0
-860 -859 0
861 857 -860 0
-861 -857 0
-861 860 0
862 -857 860 0
-862 857 0
-862 -860 0
863 861 862 0
-863 -861 0
-863 -862 0
864 746 857 0
-864 -746 0
-864 -857 0
865 857 729 0
-865 -857 0
-865 -729 0
866 746 729 0
-866 -746 0
-866 -729 0
867 865 866 0
-867 -865 0
-867 -866 0
868 -867 864 0
-868 867 0
-868 -864 0
869 757 -740 0
-869 -757 0
-869 740 0
870 -757 740 0
-870 757 0
-870 -740 0
871 870 869 0
-871 -870 0
-871 -869 0
872 -871 868 0
-872 871 0
-872 -868 0
873 871 -868 0
-873 -871 0
-873 868 0
874 872 873 0
-874 -872 0
-874 -873 0
875 757 868 0
-875 -757 0
-875 -868 0
876 868 740 0
-876 -868 0
-876 -740 0
877 757 740 0
-877 -757 0
-877 -740 0
878 877 876 0
-878 -877 0
-878 -876 0
879 -878 875 0
-879 878 0
-879 -875 0
880 -751 768 0
-880 751 0
-880 -768 0
881 751 -768 0
-881 -751 0
-881 768 0
882 881 880 0
-882 -881 0
-882 -880 0
883 -882 879 0
-883 882 0
-883 -879 0
884 882 -879 0
-884 -882 0
-884 879 0
885 884 883 0
-885 -884 0
-885 -883 0
886 879 768 0
-886 -879 0
-886 -768 0
887 879 751 0
-887 -879 0
-887 -751 0
888 751 768 0
-888 -751 0
-888 -768 0
889 887 888 0
-889 -887 0
-889 -888 0
890 886 -889 0
-890 -886 0
-890 889 0
891 -762 779 0
-891 762 0
-891 -779 0
892 762 -779 0
-892 -762 0
-892 779 0
893 892 891 0
-893 -892 0
-893 -891 0
894 890 -893 0
-894 -890 0
-894 893 0
895 -890 893 0
-895 890 0
-895 -893 0
896 894 895 0
-896 -894 0
-896 -895 0
897 890 779 0
-897 -890 0
-897 -779 0
898 762 890 0
-898 -762 0
-898 -890 0
899 762 779 0
-899 -762 0
-899 -779 0
900 899 898 0
-900 -899 0
-900 -898 0
901 897 -900 0
-901 -897 0
-901 900 0
902 -773 790 0
-902 773 0
-902 -790 0
903 773 -790 0
-903 -773 0
-903 790 0
904 902 903 0
-904 -902 0
-904 -903 0
905 -904 901 0
-905 904 0
-905 -901 0
906 904 -901 0
-906 -904 0
-906 901 0
907 905 906 0
-907 -905 0
-907 -906 0
908 901 790 0
-908 -901 0
-908 -790 0
909 901 773 0
-909 -901 0
-909 -773 0
910 773 790 0
-910 -773 0
-910 -790 0
911 909 910 0
-911 -909 0
-911 -910 0
912 -911 908 0
-912 911 0
-912 -908 0
913 801 -784 0
-913 -801 0
-913 784 0
914 -801 784 0
-914 801 0
-914 -784 0
915 914 913 0
-915 -914 0
-915 -913 0
916 912 -915 0
-916 -912 0
-916 915 0
917 -912 915 0
-917 912 0
-917 -915 0
918 917 916 0
-918 -917 0
-918 -916 0
919 912 801 0
-919 -912 0
-919 -801 0
920 912 784 0
-920 -912 0
-920 -784 0
921 801 784 0
-921 -801 0
-921 -784 0
922 920 921 0
-922 -920 0
-922 -921 0
923 919 -922 0
-923 -919 0
-923 922 0
924 -795 812 0
-924 795 0
-924 -812 0
925 795 -812 0
-925 -795 0
-925 812 0
926 924 925 0
-926 -924 0
-926 -925 0
927 -926 923 0
-927 926 0
-927 -923 0
928 926 -923 0
-928 -926 0
-928 923 0
929 927 928 0
-929 -927 0
-929 -928 0
930 923 812 0
-930 -923 0
-930 -812 0
931 795 923 0
-931 -795 0
-931 -923 0
932 795 812 0
-932 -795 0
-932 -812 0
933 931 932 0
-933 -931 0
-933 -932 0
934 930 -933 0
-934 -930 0
-934 933 0
935 -806 816 0
-935 806 0
-935 -816 0
936 806 -816 0
-936 -806 0
-936 816 0
937 936 935 0
-937 -936 0
-937 -935 0
938 -937 934 0
-938 937 0
-938 -934 0
939 937 -934 0
-939 -937 0
-939 934 0
940 938 939 0
-940 -938 0
-940 -939 0
941 934 816 0
-941 -934 0
-941 -816 0
942 806 934 0
-942 -806 0
-942 -934 0
943 806 816 0
-943 -806 0
-943 -816 0
944 942 943 0
-944 -942 0
-944 -943 0
945 941 -944 0
-945 -941 0
-945 944 0
946 813 820 0
-946 -813 0
-946 -820 0
947 -813 -820 0
-947 813 0
-947 820 0
948 946 947 0
-948 -946 0
-948 -947 0
949 945 -948 0
-949 -945 0
-949 948 0
950 -945 948 0
-950 945 0
-950 -948 0
951 949 950 0
-951 -949 0
-951 -950 0
952 820 945 0
-952 -820 0
-952 -945 0
953 -813 945 0
-953 813 0
-953 -945 0
954 -813 820 0
-954 813 0
-954 -820 0
955 954 953 0
-955 -954 0
-955 -953 0
956 952 -955 0
-956 -952 0
-956 955 0
957 -594 817 0
-957 594 0
-957 -817 0
958 594 -817 0
-958 -594 0
-958 817 0
959 958 957 0
-959 -958 0
-959 -957 0
960 956 -959 0
-960 -956 0
-960 959 0
961 -956 959 0
-961 956 0
-961 -959 0
962 960 961 0
-962 -960 0
-962 -961 0
963 -594 956 0
-963 594 0
-963 -956 0
964 956 -817 0
-964 -956 0
-964 817 0
965 -594 -817 0
-965 594 0
-965 817 0
966 965 964 0
-966 -965 0
-966 -964 0
967 -966 963 0
-967 966 0
-967 -963 0
-968 20 0
968 -20 0
-969 -113 0
969 113 0
-970 -401 0
970 401 0
-971 -601 0
971 601 0
-972 -705 0
972 705 0
-973 -823 0
973 823 0
-974 -830 0
974 830 0
-975 -841 0
975 841 0
-976 -852 0
976 852 0
-977 -863 0
977 863 0
-978 -874 0
978 874 0
-979 -885 0
979 885 0
-980 -896 0
980 896 0
-981 -907 0
981 907 0
-982 -918 0
982 918 0
-983 -929 0
983 929 0
-984 -940 0
984 940 0
-985 -951 0
985 951 0
-986 -962 0
986 962 0
-968 0
-969 0
-970 0
-971 0
-972 0
-973 0
-974 0
-975 0
-976 0
-977 0
-978 0
-979 0
-980 0
-981 0
-982 0
-983 0
-984 0
-985 0
-986 0
